c ---- [ banner ] ------------------------------------------------------------
c
c Kissat SAT Solver
c 
c Copyright (c) 2021-2024 Armin Biere University of Freiburg
c Copyright (c) 2019-2021 Armin Biere Johannes Kepler University Linz
c 
c Version 4.0.1 43f02cf3e992cb44653b35e5cb26f93281552ae0
c gcc (Ubuntu 13.2.0-23ubuntu4) 13.2.0 -W -Wall -O3 -DNDEBUG
c Thu Sep 12 12:27:46 CEST 2024 Linux abryzen9 6.8.0-41-generic x86_64
c
c ---- [ parsing ] -----------------------------------------------------------
c
c opened and reading DIMACS file:
c
c   /data/artifact/AMulet2.0_artifact/exp4/cnf_dc2_64/64_64_U1_WT_RC_Multgen_dc2.cnf
c
c parsed 'p cnf 30642 133940' header
c closing input after reading 2680830 bytes (3 MB)
c finished parsing after 0.02 seconds
c
c ---- [ options ] -----------------------------------------------------------
c
c --stable=0                       (different from default '1')
c
c ---- [ solving ] -----------------------------------------------------------
c
c  seconds switched rate     size/glue tier1  binary           remaining
c         MB reductions conflicts size  tier2     irredundant
c          level restarts redundant glue  trail           variables
c
c *  0.02 10 0 0 0  0 0   0   0 0.0 0 0 0 0 0% 12452 121486 30639 100%
c (  0.04 13 0 0 0  0 0   0   0 0.0 0 0 0 0 0% 12452 121486 30639 100%
c .  0.04 13 0 0 0  0 0   0   0 0.0 0 0 0 0 0% 12448 121486 30639 100%
c c  0.10 18 0 0 0  0 0   0   0 0.0 0 0 0 0 0% 19389 107801 27167 89%
c d  0.10 18 0 0 0  0 0   0   0 0.0 0 0 0 0 0% 12445 107801 27167 89%
c =  0.14 18 0 0 0  0 0   0   0 0.0 0 0 0 0 0% 12907 107801 26871 88%
c d  0.15 18 0 0 0  0 0   0   0 0.0 0 0 0 0 0% 12315 107801 26871 88%
c f  0.22 19 0 0 0  0 0   0   0 0.0 0 0 0 0 0% 17321 99917 29659 97%
c e  0.37 26 0 0 0  0 0   0   0 0.0 0 0 0 0 0% 11093 108076 20614 67%
c )  0.37 26 0 0 0  0 0   0   0 0.0 0 0 0 0 0% 11093 108076 20614 67%
c {  0.40 26 0 0 0  0 0   0   0 0.0 0 0 2 6 0% 11093 108076 20614 67%
c -  0.79 28 183 0 1 327 53 1000 737 6.3 45 7 4 15 26% 11154 108070 20614 67%
c -  1.06 28 202 0 2 440 39 2000 1379 5.6 42 7 3 12 25% 11195 108066 20614 67%
c c  1.26 22 241 0 2 522 41 2503 1804 5.1 40 8 3 12 25% 11315 107742 20570 67%
c d  1.26 22 241 0 2 522 41 2503 1801 5.1 40 8 3 12 25% 11227 107742 20570 67%
c u  1.29 22 241 0 2 522 41 2503 1526 5.1 40 8 3 12 25% 11230 107742 20570 67%
c v  1.32 22 241 0 2 522 41 2503 1250 5.1 40 8 3 12 25% 11230 107742 20570 67%
c w  1.34 27 241 0 2 522 41 2503 1248 5.1 40 8 3 12 25% 11230 107742 20570 67%
c x  1.36 27 241 0 2 522 41 2503 1248 5.1 40 8 3 12 25% 11382 107428 20570 67%
c =  1.46 27 241 0 2 522 41 2503 1248 5.1 40 8 3 12 25% 11992 107428 20265 66%
c
c  seconds   switched   rate       size/glue tier1     binary           remaining
c         MB  reductions conflicts       size  tier2       irredundant
c           level restarts    redundant    glue    trail           variables
c
c d  1.47 27 241 0 2 522 41 2503 1243 5.1 40 8 3 12 25% 11379 107428 20265 66%
c t  1.48 27 241 0 2 522 41 2503 1243 5.1 40 8 3 12 25% 11371 107428 20265 66%
c f  1.51 27 241 0 2 522 41 2503 1243 5.1 40 8 3 12 25% 11982 106217 20855 68%
c c  1.58 27 241 0 2 522 41 2503 1243 5.1 40 8 3 12 25% 11986 106209 20854 68%
c d  1.59 27 241 0 2 522 41 2503 1243 5.1 40 8 3 12 25% 11984 106209 20854 68%
c u  1.61 27 241 0 2 522 41 2503 1205 5.1 40 8 3 12 25% 11987 106209 20854 68%
c v  1.63 27 241 0 2 522 41 2503 1160 5.1 40 8 3 12 25% 11988 106209 20854 68%
c w  1.67 29 241 0 2 522 41 2503 1158 5.1 40 8 3 12 25% 11988 106209 20854 68%
c x  1.69 29 241 0 2 522 41 2503 1158 5.1 40 8 3 12 25% 11989 105581 20854 68%
c =  1.79 29 241 0 2 522 41 2503 1158 5.1 40 8 3 12 25% 12209 105581 20744 68%
c d  1.79 29 241 0 2 522 41 2503 1156 5.1 40 8 3 12 25% 11987 105581 20744 68%
c f  1.84 29 241 0 2 522 41 2503 1156 5.1 40 8 3 12 25% 12025 105524 20763 68%
c -  2.13 29 253 0 3 628 39 3415 1642 4.7 38 8 3 13 27% 12042 105524 20763 68%
c -  2.23 29 283 0 4 663 30 5149 2698 4.1 29 7 2 10 23% 12121 105500 20763 68%
c -  2.77 29 310 0 5 860 32 7149 3675 4.3 29 7 2 10 23% 12236 105484 20763 68%
c d  2.93 29 313 0 5 907 32 7708 4150 4.4 31 7 2 10 23% 12195 105484 20731 68%
c u  2.96 29 313 0 5 907 32 7708 3626 4.4 31 7 2 10 23% 12211 105484 20731 68%
c v  3.00 29 313 0 5 907 32 7708 3280 4.4 31 7 2 10 23% 12211 105484 20731 68%
c w  3.03 29 313 0 5 907 32 7708 3280 4.4 31 7 2 10 23% 12211 105484 20731 68%
c x  3.05 29 313 0 5 907 32 7708 3280 4.4 31 7 2 10 23% 12212 105361 20731 68%
c
c  seconds   switched   rate       size/glue tier1     binary           remaining
c         MB  reductions conflicts       size  tier2       irredundant
c           level restarts    redundant    glue    trail           variables
c
c =  3.16 29 313 0 5 907 32 7708 3280 4.4 31 7 2 10 23% 13008 105361 20333 66%
c d  3.17 29 313 0 5 907 32 7708 3272 4.4 31 7 2 10 23% 12123 105361 20332 66%
c t  3.19 29 313 0 5 907 32 7708 3272 4.4 31 7 2 10 23% 12109 105361 20332 66%
c f  3.24 29 313 0 5 907 32 7708 3272 4.4 31 7 2 10 23% 12873 104194 20719 68%
c c  3.31 29 313 0 5 907 32 7708 3272 4.4 31 7 2 10 23% 12875 104186 20718 68%
c d  3.32 29 313 0 5 907 32 7708 3272 4.4 31 7 2 10 23% 12873 104186 20718 68%
c u  3.35 29 313 0 5 907 32 7708 3192 4.4 31 7 2 10 23% 12876 104186 20718 68%
c v  3.39 29 313 0 5 907 32 7708 2939 4.4 31 7 2 10 23% 12877 104186 20718 68%
c w  3.43 29 313 0 5 907 32 7708 2938 4.4 31 7 2 10 23% 12877 104186 20718 68%
c x  3.46 29 313 0 5 907 32 7708 2938 4.4 31 7 2 10 23% 12877 104176 20718 68%
c =  3.57 29 313 0 5 907 32 7708 2938 4.4 31 7 2 10 23% 13633 104176 20340 66%
c d  3.58 29 313 0 5 907 32 7708 2924 4.4 31 7 2 10 23% 12779 104176 20340 66%
c t  3.60 29 313 0 5 907 32 7708 2924 4.4 31 7 2 10 23% 12740 104176 20340 66%
c f  3.64 29 313 0 5 907 32 7708 2924 4.4 31 7 2 10 23% 14337 101769 21141 69%
c -  3.92 29 309 0 6 1025 31 9386 3712 4.2 28 7 2 10 23% 14412 101759 21141 69%
c o  4.01 29 313 0 6 1060 31 10028 4288 4.2 28 7 2 10 23% 14438 101754 21141 69%
c -  4.25 29 337 0 7 1174 30 11836 5107 4.1 27 7 2 10 23% 14540 101749 21141 69%
c s  4.43 29 341 0 7 1259 30 12513 5669 4.3 29 7 2 10 23% 14582 95122 21141 69%
c e  4.51 29 341 0 7 1259 30 12513 5669 4.3 29 7 2 10 23% 13461 95996 20476 67%
c s  4.51 29 341 0 7 1259 30 12513 5669 4.3 29 7 2 10 23% 13470 95383 20476 67%
c
c  seconds   switched    rate        size/glue tier1     binary          remaining
c         MB  reductions   conflicts       size  tier2       irredundant
c           level  restarts     redundant    glue    trail          variables
c
c ^  4.52 29 341 0 7 1259 30 12513 5669 4.3 29 7 2 10 23% 13470 95383 20476 67%
c -  4.78 29 320 0 8 1372 29 14481 6100 4.1 28 7 2 9 24% 13538 95382 20476 67%
c d  5.19 29 323 0 8 1534 30 15791 7219 4.3 29 7 2 9 25% 13193 95378 20249 66%
c u  5.22 29 323 0 8 1534 30 15791 6317 4.3 29 7 2 9 25% 13215 95378 20249 66%
c v  5.26 29 323 0 8 1534 30 15791 5443 4.3 29 7 2 9 25% 13217 95378 20249 66%
c w  5.33 29 323 0 8 1534 30 15791 5439 4.3 29 7 2 9 25% 13217 95378 20249 66%
c =  5.46 29 323 0 8 1534 30 15791 5439 4.3 29 7 2 9 25% 13987 95372 19864 65%
c d  5.46 29 323 0 8 1534 30 15791 5409 4.3 29 7 2 9 25% 13048 95372 19861 65%
c t  5.48 29 323 0 8 1534 30 15791 5409 4.3 29 7 2 9 25% 12999 95372 19861 65%
c f  5.52 29 323 0 8 1534 30 15791 5409 4.3 29 7 2 9 25% 13218 94910 19978 65%
c u  5.55 29 323 0 8 1534 30 15791 5194 4.3 29 7 2 9 25% 13220 94910 19978 65%
c v  5.58 29 323 0 8 1534 30 15791 5057 4.3 29 7 2 9 25% 13221 94910 19978 65%
c w  5.63 29 323 0 8 1534 30 15791 5053 4.3 29 7 2 9 25% 13221 94910 19978 65%
c x  5.66 29 323 0 8 1534 30 15791 5053 4.3 29 7 2 9 25% 13274 94459 19978 65%
c =  5.79 29 323 0 8 1534 30 15791 5053 4.3 29 7 2 9 25% 13532 94459 19849 65%
c d  5.80 29 323 0 8 1534 30 15791 5026 4.3 29 7 2 9 25% 13184 94459 19849 65%
c t  5.81 29 323 0 8 1534 30 15791 5026 4.3 29 7 2 9 25% 13176 94459 19849 65%
c f  5.83 29 323 0 8 1534 30 15791 5026 4.3 29 7 2 9 25% 13180 94447 19853 65%
c -  6.04 29 330 0 9 1639 30 17311 5640 4.2 28 7 2 9 25% 13253 94423 19853 65%
c o  6.68 29 328 0 9 1939 32 20049 8003 4.3 30 7 2 9 24% 13323 94419 19853 65%
c
c  seconds   switched     rate        size/glue tier1    binary          remaining
c         MB   reductions   conflicts       size  tier2      irredundant
c           level   restarts     redundant    glue   trail          variables
c
c -  6.75 29 327 0 10 1966 32 20311 7281 4.3 30 7 2 9 25% 13326 94418 19853 65%
c -  7.22 29 332 0 11 2199 31 23473 8860 4.3 31 7 2 8 25% 13431 94409 19853 65%
c s  7.59 29 328 0 11 2341 31 25017 10104 4.4 31 7 2 8 25% 13507 92736 19853 65%
c e  7.71 29 328 0 11 2341 31 25017 10104 4.4 31 7 2 8 25% 10825 96467 18398 60%
c s  7.72 29 328 0 11 2341 31 25017 10104 4.4 31 7 2 8 25% 10850 96021 18398 60%
c e  7.73 29 328 0 11 2341 31 25017 10104 4.4 31 7 2 8 25% 10842 96032 18395 60%
c ^  7.73 29 328 0 11 2341 31 25017 10104 4.4 31 7 2 8 25% 10842 96032 18395 60%
c -  7.96 29 326 0 12 2432 31 26789 9347 4.3 31 7 2 8 25% 10912 96032 18395 60%
c c  8.02 29 329 0 12 2432 31 26921 9462 4.3 30 7 2 8 25% 10938 95873 18368 60%
c d  8.02 29 329 0 12 2432 31 26921 9444 4.3 30 7 2 8 25% 10596 95873 18196 59%
c u  8.06 29 329 0 12 2432 31 26921 8130 4.3 30 7 2 8 25% 10616 95873 18196 59%
c v  8.09 29 329 0 12 2432 31 26921 7156 4.3 30 7 2 8 25% 10616 95873 18196 59%
c w  8.09 29 329 0 12 2432 31 26921 7155 4.3 30 7 2 8 25% 10616 95873 18196 59%
c x  8.18 29 329 0 12 2432 31 26921 7154 4.3 30 7 2 8 25% 10685 94211 18196 59%
c =  8.41 29 329 0 12 2432 31 26921 7154 4.3 30 7 2 8 25% 13997 94211 16540 54%
c d  8.41 29 329 0 12 2432 31 26921 6872 4.3 30 7 2 8 25% 10564 94211 16539 54%
c t  8.43 29 329 0 12 2432 31 26921 6872 4.3 30 7 2 8 25% 10484 94211 16539 54%
c f  8.48 29 329 0 12 2432 31 26921 6872 4.3 30 7 2 8 25% 10483 94126 16558 54%
c u  8.51 29 329 0 12 2432 31 26921 6394 4.3 30 7 2 8 25% 10487 94126 16558 54%
c v  8.52 29 329 0 12 2432 31 26921 6263 4.3 30 7 2 8 25% 10487 94126 16558 54%
c
c  seconds   switched     rate        size/glue tier1    binary          remaining
c         MB   reductions   conflicts       size  tier2      irredundant
c           level   restarts     redundant    glue   trail          variables
c
c w  8.53 29 329 0 12 2432 31 26921 6260 4.3 30 7 2 8 25% 10487 94126 16558 54%
c x  8.60 29 329 0 12 2432 31 26921 6258 4.3 30 7 2 8 25% 10498 87320 16558 54%
c =  8.79 29 329 0 12 2432 31 26921 6258 4.3 30 7 2 8 25% 13618 87316 14998 49%
c d  8.80 29 329 0 12 2432 31 26921 6159 4.3 30 7 2 8 25% 10438 87316 14998 49%
c t  8.82 29 329 0 12 2432 31 26921 6159 4.3 30 7 2 8 25% 10332 87316 14998 49%
c f  8.86 29 329 0 12 2432 31 26921 6159 4.3 30 7 2 8 25% 10348 87244 15015 49%
c -  9.15 29 325 0 13 2598 29 30255 8155 4.2 29 7 2 7 24% 10450 87241 15015 49%
c -  9.56 29 308 0 14 2822 28 33861 10232 4.0 28 7 2 7 24% 10514 87240 15015 49%
c -  9.77 29 290 0 15 2958 26 37604 11909 3.9 27 7 2 6 23% 10585 87237 15015 49%
c o  9.94 29 290 0 15 3065 26 40396 14255 3.9 26 7 2 6 22% 10648 87234 15015 49%
c c 10.13 29 287 0 15 3182 26 41248 15045 3.8 26 7 2 6 23% 10729 86703 14919 49%
c d 10.13 29 287 0 15 3182 26 41248 14759 3.8 26 7 2 6 23% 10537 86703 14919 49%
c u 10.18 29 287 0 15 3182 26 41248 12412 3.8 26 7 2 6 23% 10556 86703 14919 49%
c v 10.21 29 287 0 15 3182 26 41248 11976 3.8 26 7 2 6 23% 10556 86703 14919 49%
c w 10.23 29 287 0 15 3182 26 41248 11960 3.8 26 7 2 6 23% 10556 86703 14919 49%
c x 10.27 29 287 0 15 3182 26 41248 11960 3.8 26 7 2 6 23% 10567 80815 14919 49%
c = 10.38 29 287 0 15 3182 26 41248 11960 3.8 26 7 2 6 23% 10959 80815 14723 48%
c d 10.39 29 287 0 15 3182 26 41248 11920 3.8 26 7 2 6 23% 10553 80815 14717 48%
c t 10.40 29 287 0 15 3182 26 41248 11920 3.8 26 7 2 6 23% 10502 80815 14717 48%
c f 10.41 29 287 0 15 3182 26 41248 11920 3.8 26 7 2 6 23% 10500 80743 14736 48%
c
c  seconds   switched     rate         size/glue tier1    binary          remaining
c         MB   reductions   conflicts        size  tier2      irredundant
c           level   restarts      redundant    glue   trail          variables
c
c c 10.45 29 287 0 15 3182 26 41248 11891 3.8 26 7 2 6 23% 10507 80711 14732 48%
c d 10.45 29 287 0 15 3182 26 41248 11891 3.8 26 7 2 6 23% 10499 80711 14732 48%
c u 10.48 29 287 0 15 3182 26 41248 11352 3.8 26 7 2 6 23% 10510 80711 14732 48%
c v 10.52 29 287 0 15 3182 26 41248 10582 3.8 26 7 2 6 23% 10513 80711 14732 48%
c w 10.54 29 287 0 15 3182 26 41248 10582 3.8 26 7 2 6 23% 10513 80711 14732 48%
c x 10.58 29 287 0 15 3182 26 41248 10582 3.8 26 7 2 6 23% 10517 77307 14732 48%
c = 10.69 29 287 0 15 3182 26 41248 10582 3.8 26 7 2 6 23% 10525 77307 14728 48%
c d 10.70 29 287 0 15 3182 26 41248 10574 3.8 26 7 2 6 23% 10509 77307 14724 48%
c t 10.71 29 287 0 15 3182 26 41248 10574 3.8 26 7 2 6 23% 10502 77307 14724 48%
c - 10.75 29 286 0 16 3207 26 41478 9466 3.8 26 7 2 6 23% 10504 77307 14724 48%
c - 11.07 29 278 0 17 3444 25 45480 11484 3.8 26 7 2 6 22% 10549 77305 14724 48%
c - 11.44 29 270 0 18 3699 25 49603 13360 3.7 25 7 2 6 22% 10646 77297 14724 48%
c s 11.65 29 262 0 18 3859 24 52121 15509 3.6 24 7 2 6 22% 10677 71093 14724 48%
c e 11.71 29 262 0 18 3859 24 52121 15509 3.6 24 7 2 6 22% 9763 72450 14277 47%
c 2 11.71 29 262 0 18 3859 24 52121 15509 3.6 24 7 2 6 22% 9760 72450 14277 47%
c s 11.72 29 262 0 18 3859 24 52121 15509 3.6 24 7 2 6 22% 9779 72225 14277 47%
c e 11.72 29 262 0 18 3859 24 52121 15509 3.6 24 7 2 6 22% 9763 72245 14270 47%
c ^ 11.72 29 262 0 18 3859 24 52121 15509 3.6 24 7 2 6 22% 9763 72245 14270 47%
c - 12.12 29 261 0 19 4179 25 53845 12370 3.7 25 7 1 6 22% 9781 72242 14270 47%
c - 12.61 29 254 0 20 4575 25 58203 13292 3.6 25 7 1 6 22% 9862 72237 14270 47%
c
c  seconds   switched     rate         size/glue tier1    binary         remaining
c         MB   reductions   conflicts        size  tier2     irredundant
c           level   restarts      redundant    glue   trail         variables
c
c d 12.75 29 253 0 20 4658 25 58884 13875 3.6 25 7 1 6 23% 9823 72237 14247 46%
c u 12.79 29 253 0 20 4658 25 58884 12355 3.6 25 7 1 6 23% 9856 72237 14247 46%
c v 12.85 29 253 0 20 4658 25 58884 10307 3.6 25 7 1 6 23% 9878 72237 14247 46%
c w 12.91 29 253 0 20 4658 25 58884 10275 3.6 25 7 1 6 23% 9878 72237 14247 46%
c x 12.96 29 253 0 20 4658 25 58884 10274 3.6 25 7 1 6 23% 9897 71606 14247 46%
c = 13.15 29 253 0 20 4658 25 58884 10274 3.6 25 7 1 6 23% 9901 71606 14245 46%
c d 13.16 29 253 0 20 4658 25 58884 10247 3.6 25 7 1 6 23% 9861 71606 14227 46%
c t 13.17 29 253 0 20 4658 25 58884 10247 3.6 25 7 1 6 23% 9833 71606 14227 46%
c f 13.19 29 253 0 20 4658 25 58884 10247 3.6 25 7 1 6 23% 9843 71556 14234 46%
c c 13.23 29 253 0 20 4658 25 58884 10202 3.6 25 7 1 6 23% 9909 71319 14200 46%
c d 13.24 29 253 0 20 4658 25 58884 10202 3.6 25 7 1 6 23% 9841 71319 14200 46%
c u 13.26 29 253 0 20 4658 25 58884 9874 3.6 25 7 1 6 23% 9843 71319 14200 46%
c v 13.29 29 253 0 20 4658 25 58884 9502 3.6 25 7 1 6 23% 9852 71319 14200 46%
c w 13.33 29 253 0 20 4658 25 58884 9475 3.6 25 7 1 6 23% 9852 71319 14200 46%
c x 13.40 29 253 0 20 4658 25 58884 9468 3.6 25 7 1 6 23% 9883 70748 14200 46%
c = 13.59 29 253 0 20 4658 25 58884 9468 3.6 25 7 1 6 23% 9929 70748 14177 46%
c d 13.59 29 253 0 20 4658 25 58884 9443 3.6 25 7 1 6 23% 9858 70748 14172 46%
c t 13.61 29 253 0 20 4658 25 58884 9443 3.6 25 7 1 6 23% 9843 70748 14172 46%
c - 13.91 29 252 0 21 4885 25 62677 10507 3.6 25 7 1 6 23% 9893 70748 14172 46%
c - 14.35 29 251 0 22 5245 24 67261 12229 3.5 24 7 1 6 22% 9981 70747 14172 46%
c
c  seconds   switched     rate         size/glue tier1    binary          remaining
c         MB   reductions   conflicts        size  tier2      irredundant
c           level   restarts      redundant    glue   trail          variables
c
c o 14.98 29 247 0 22 5595 25 70396 14969 3.5 24 7 1 6 23% 10041 70747 14172 46%
c - 15.29 29 242 0 23 5727 25 71951 13743 3.5 24 7 1 6 22% 10048 70746 14172 46%
c - 16.14 29 238 0 24 6173 24 76746 15151 3.5 25 7 1 5 22% 10152 70743 14172 46%
c c 16.79 29 235 0 24 6482 24 79969 18042 3.5 25 7 1 5 22% 10293 69851 13999 46%
c d 16.80 29 235 0 24 6482 24 79969 17415 3.5 25 7 1 5 22% 9947 69851 13999 46%
c u 16.85 29 235 0 24 6482 24 79969 15580 3.5 25 7 1 5 22% 9978 69851 13999 46%
c v 16.94 29 235 0 24 6482 24 79969 13376 3.5 25 7 1 5 22% 10006 69851 13999 46%
c w 17.07 29 235 0 24 6482 24 79969 13365 3.5 25 7 1 5 22% 10006 69851 13999 46%
c x 17.15 29 235 0 24 6482 24 79969 13363 3.5 25 7 1 5 22% 10020 69729 13999 46%
c = 17.32 29 235 0 24 6482 24 79969 13363 3.5 25 7 1 5 22% 10466 69729 13776 45%
c d 17.33 29 235 0 24 6482 24 79969 12951 3.5 25 7 1 5 22% 9906 69729 13759 45%
c t 17.35 29 235 0 24 6482 24 79969 12951 3.5 25 7 1 5 22% 9846 69729 13759 45%
c f 17.36 29 235 0 24 6482 24 79969 12951 3.5 25 7 1 5 22% 9863 69624 13773 45%
c c 17.42 29 235 0 24 6482 24 79969 12909 3.5 25 7 1 5 22% 9885 69540 13762 45%
c d 17.42 29 235 0 24 6482 24 79969 12909 3.5 25 7 1 5 22% 9863 69540 13762 45%
c u 17.47 29 235 0 24 6482 24 79969 12398 3.5 25 7 1 5 22% 9871 69540 13762 45%
c v 17.53 29 235 0 24 6482 24 79969 11885 3.5 25 7 1 5 22% 9877 69540 13762 45%
c w 17.80 29 235 0 24 6482 24 79969 11365 3.5 25 7 1 5 22% 9877 69540 13762 45%
c = 18.18 29 235 0 24 6482 24 79969 11365 3.5 25 7 1 5 22% 10569 69522 13415 44%
c d 18.18 29 235 0 24 6482 24 79969 11106 3.5 25 7 1 5 22% 9800 69522 13415 44%
c
c  seconds   switched     rate         size/glue tier1    binary         remaining
c         MB   reductions   conflicts        size  tier2     irredundant
c           level   restarts      redundant    glue   trail         variables
c
c t 18.20 29 235 0 24 6482 24 79969 11106 3.5 25 7 1 5 22% 9730 69522 13415 44%
c f 18.22 29 235 0 24 6482 24 79969 11106 3.5 25 7 1 5 22% 9753 69420 13428 44%
c - 18.58 29 236 0 25 6647 25 81644 10717 3.5 25 7 1 5 23% 9767 69419 13428 44%
c - 19.31 29 226 0 26 7005 24 86647 12873 3.5 25 7 1 6 22% 9788 69417 13428 44%
c - 20.23 29 220 0 27 7482 24 91747 15028 3.5 25 7 1 5 23% 9820 69415 13428 44%
c s 21.06 29 215 0 27 7932 24 95829 18769 3.5 25 7 1 5 23% 9832 66552 13428 44%
c e 21.17 29 215 0 27 7932 24 95829 18769 3.5 25 7 1 5 23% 6436 74738 11748 38%
c 2 21.18 29 215 0 27 7932 24 95829 18769 3.5 25 7 1 5 23% 6433 74738 11748 38%
c s 21.20 29 215 0 27 7932 24 95829 18769 3.5 25 7 1 5 23% 6449 74209 11748 38%
c e 21.22 29 215 0 27 7932 24 95829 18769 3.5 25 7 1 5 23% 6407 74409 11681 38%
c ^ 21.22 29 215 0 27 7932 24 95829 18769 3.5 25 7 1 5 23% 6407 74409 11681 38%
c - 21.37 29 216 0 28 8007 24 96943 12252 3.4 25 7 1 5 23% 6408 74409 11681 38%
c - 22.40 29 214 0 29 8628 24 102235 14424 3.4 25 7 1 5 23% 6433 74403 11681 38%
c d 23.06 29 211 0 29 9000 24 104615 16659 3.4 25 7 1 5 23% 6429 74403 11676 38%
c u 23.12 29 211 0 29 9000 24 104615 15106 3.4 25 7 1 5 23% 6447 74403 11676 38%
c v 23.21 29 211 0 29 9000 24 104615 12913 3.4 25 7 1 5 23% 6451 74403 11676 38%
c w 23.40 29 211 0 29 9000 24 104615 12886 3.4 25 7 1 5 23% 6451 74403 11676 38%
c x 23.49 29 211 0 29 9000 24 104615 12884 3.4 25 7 1 5 23% 6455 74294 11676 38%
c = 23.98 29 211 0 29 9000 24 104615 12884 3.4 25 7 1 5 23% 6665 74294 11571 38%
c d 23.99 29 211 0 29 9000 24 104615 12415 3.4 25 7 1 5 23% 6427 74294 11571 38%
c
c  seconds   switched     rate          size/glue tier1    binary         remaining
c         MB   reductions   conflicts         size  tier2     irredundant
c           level   restarts       redundant    glue   trail         variables
c
c t 24.00 29 211 0 29 9000 24 104615 12415 3.4 25 7 1 5 23% 6400 74294 11571 38%
c f 24.07 29 211 0 29 9000 24 104615 12415 3.4 25 7 1 5 23% 6443 74004 11596 38%
c u 24.16 29 211 0 29 9000 24 104615 11992 3.4 25 7 1 5 23% 6452 74004 11582 38%
c v 24.22 29 211 0 29 9000 24 104615 11526 3.4 25 7 1 5 23% 6453 74004 11582 38%
c w 24.43 29 211 0 29 9000 24 104615 11146 3.4 25 7 1 5 23% 6453 74004 11582 38%
c t 24.79 29 211 0 29 9000 24 104615 11146 3.4 25 7 1 5 23% 6452 74004 11582 38%
c - 25.16 29 208 0 30 9303 24 107621 11865 3.4 25 7 1 5 24% 6431 74004 11582 38%
c o 25.42 29 206 0 30 9530 24 110414 14362 3.4 25 7 1 5 24% 6437 74002 11582 38%
c - 25.86 29 205 0 31 9885 24 113098 14397 3.4 25 7 1 5 24% 6444 73998 11582 38%
c - 26.62 29 200 0 32 10383 23 118666 16480 3.3 25 8 1 5 24% 6456 73998 11582 38%
c - 27.48 29 195 0 33 10943 23 124322 18128 3.3 26 8 1 5 25% 6480 73998 11582 38%
c i 27.91 29 190 0 33 11246 23 128790 22255 3.3 25 8 1 5 25% 6498 73996 11580 38%
c i 27.95 29 189 0 33 11277 23 129250 22630 3.3 25 8 1 5 25% 6512 73996 11579 38%
c - 28.10 29 188 0 34 11394 23 130067 19219 3.3 25 8 1 5 25% 6508 73996 11579 38%
c i 28.29 29 187 0 34 11531 23 131711 20746 3.3 25 8 1 5 25% 6522 73993 11577 38%
c d 28.45 29 186 0 34 11638 22 132887 21758 3.2 25 8 1 5 25% 6528 73951 11565 38%
c d 28.45 29 186 0 34 11638 22 132887 21744 3.2 25 8 1 5 25% 6508 73951 11555 38%
c u 28.49 29 186 0 34 11638 22 132887 19555 3.2 25 8 1 5 25% 6549 73951 11552 38%
c v 28.56 29 186 0 34 11638 22 132887 16208 3.2 25 8 1 5 25% 6587 73951 11550 38%
c w 28.72 29 186 0 34 11638 22 132887 15772 3.2 25 8 1 5 25% 6569 73951 11550 38%
c
c  seconds   switched      rate          size/glue tier1    binary         remaining
c         MB   reductions    conflicts         size  tier2     irredundant
c           level   restarts        redundant    glue   trail         variables
c
c d 28.73 29 186 0 34 11638 22 132887 15724 3.2 25 8 1 5 25% 6569 73907 11543 38%
c d 28.73 29 186 0 34 11638 22 132887 15722 3.2 25 8 1 5 25% 6553 73907 11537 38%
c t 28.73 29 186 0 34 11638 22 132887 15722 3.2 25 8 1 5 25% 6506 73907 11537 38%
c u 28.77 29 186 0 34 11638 22 132887 15097 3.2 25 8 1 5 25% 6518 73907 11537 38%
c v 28.81 29 186 0 34 11638 22 132887 14363 3.2 25 8 1 5 25% 6524 73907 11537 38%
c w 28.94 29 186 0 34 11638 22 132887 14236 3.2 25 8 1 5 25% 6524 73907 11537 38%
c x 29.01 29 186 0 34 11638 22 132887 14210 3.2 25 8 1 5 25% 6548 72173 11537 38%
c t 29.43 29 186 0 34 11638 22 132887 14210 3.2 25 8 1 5 25% 6531 72173 11537 38%
c i 29.43 29 186 0 34 11638 22 132887 14210 3.2 25 8 1 5 25% 6531 72173 11537 38%
c i 29.65 29 183 0 34 11792 22 135233 16312 3.2 25 8 1 5 25% 6554 72171 11535 38%
c - 29.72 29 183 0 35 11850 22 135898 14054 3.2 25 8 1 5 25% 6529 72171 11535 38%
c i 29.84 29 182 0 35 11973 22 136678 14783 3.2 25 8 1 5 26% 6535 72171 11534 38%
c i 30.18 29 179 0 35 12250 22 140012 17841 3.2 25 8 1 5 26% 6554 72171 11533 38%
c i 30.25 29 178 0 35 12299 22 140773 18555 3.2 25 8 1 5 26% 6556 72171 11532 38%
c - 30.36 29 176 0 36 12378 22 141814 16253 3.1 25 8 1 5 26% 6553 72171 11532 38%
c i 30.40 29 176 0 36 12422 22 142202 16589 3.1 25 8 1 5 26% 6560 72171 11529 38%
c i 30.42 29 176 0 36 12436 21 142644 16972 3.1 25 8 1 5 26% 6570 72171 11528 38%
c i 30.48 29 175 0 36 12476 21 143270 17551 3.1 25 8 1 5 26% 6572 72171 11522 38%
c i 30.48 29 175 0 36 12476 21 143324 17588 3.1 25 8 1 5 26% 6574 72171 11521 38%
c i 30.51 29 174 0 36 12496 21 143729 17962 3.1 25 8 1 5 26% 6580 72171 11499 38%
c
c  seconds   switched      rate          size/glue tier1    binary         remaining
c         MB   reductions    conflicts         size  tier2     irredundant
c           level   restarts        redundant    glue   trail         variables
c
c i 30.51 29 174 0 36 12498 21 143842 18045 3.1 25 8 1 5 26% 6585 72171 11473 37%
c } 30.51 29 174 0 36 12498 21 143844 18045 3.1 25 8 1 5 26% 6585 72171 11442 37%
c 0 30.51 29 174 0 36 12498 21 143844 18045 3.1 25 8 1 5 26% 6585 72171 11442 37%
c
c ---- [ result ] ------------------------------------------------------------
c
s UNSATISFIABLE
c
c ---- [ profiling ] ---------------------------------------------------------
c
c          20.93   68.60 %  search
c          20.93   68.60 %  focused
c           9.18   30.10 %  simplify
c           8.84   28.96 %  probe
c           3.55   11.63 %  sweep
c           3.49   11.43 %  vivify
c           0.59    1.94 %  factor
c           0.55    1.80 %  congruence
c           0.53    1.75 %  eliminate
c           0.48    1.57 %  substitute
c           0.34    1.11 %  preprocess
c           0.17    0.57 %  reduce
c           0.15    0.49 %  fastel
c           0.12    0.40 %  transitive
c           0.09    0.30 %  subsume
c           0.06    0.19 %  backbone
c           0.04    0.12 %  lucky
c           0.02    0.07 %  parse
c =============================================
c          30.51  100.00 %  total
c
c ---- [ statistics ] --------------------------------------------------------
c
c chronological:                         5531                4 %  conflicts
c conflicts:                           143844             4714.81 per second
c congruent:                             3863               13 %  variables
c decisions:                          3094761               21.51 per conflict
c eliminated:                           13369               44 %  variables
c factored:                              4820               16 %  variables
c fast_eliminated:                       9045               68 %  eliminated
c fast_strengthened:                       17                1 %  per strengthened
c fast_subsumed:                           74                0 %  per subsumed
c iterations:                              14                0 %  variables
c propagations:                     123598307          4051215    per second
c reductions:                              36             3996    interval
c reordered:                                5            28769    interval
c restarts:                             12498               12    interval
c strengthened:                          1383                0 %  checks
c substituted:                          10528               34 %  variables
c subsumed:                             19165                1 %  checks
c switched:                                 0                0    interval
c vivified:                             68434               13 %  checks
c
c ---- [ glue usage ] --------------------------------------------------------
c
c focused glue 1 used 218029 clauses 57.54% accumulated 57.54% tier1
c focused glue 2 used  74730 clauses 19.72% accumulated 77.26%
c focused glue 3 used  24140 clauses  6.37% accumulated 83.63%
c focused glue 4 used  14917 clauses  3.94% accumulated 87.57%
c focused glue 5 used  10548 clauses  2.78% accumulated 90.35% tier2
c
c ---- [ resources ] ---------------------------------------------------------
c
c maximum-resident-set-size:         30633984 bytes         29 MB
c process-time:                            31s              30.51 seconds
c
c ---- [ shutting down ] -----------------------------------------------------
c
c exit 20
